row=9;
column=9;
Board=[|0,0,0,0,2,0,0,2,0|0,0,0,0,0,0,0,6,0|0,0,0,0,0,0,0,0,0|0,0,0,0,0,0,0,0,0|0,1,0,0,0,0,0,0,0|0,0,0,0,0,0,0,0,0|0,0,0,0,0,0,0,0,0|0,0,0,0,0,0,0,0,0|0,0,0,0,0,0,1,0,3|];
right = [2,4,1,1,3,1,3,3,2];
bottom = [0,3,2,0,6,0,3,3,3];
